nServices=10;
nDrivers=10;
nBuses=10;
startTime=[148 77 44 114 96 57 79 115 40 185];
durationTime=[14 12 11 17 28 20 24 28 10 22];
durationDist=[38 60 35 35 50 47 27 58 48 53];
passangers=[16 5 17 17 8 9 16 20 5 8];
capacity=[23 17 26 12 24 24 30 30 22 28];
costTime=[10 7 9 7 6 7 6 8 10 10];
costDist=[3 6 6 2 3 3 3 5 6 3];
maxTime=[28 38 27 56 35 32 41 41 30 43];
costBM=[8 8 5 7 5 7 8 6 5 6];
costEM=[10 8 9 12 11 10 10 12 10 9];
BM=[12 10 17 16 14 17 14 18 17 10];
